122
1 0
2 0
3 0
4 0
5 10
6 12
7 16
8 16
9 19
10 15
11 22
12 10
13 8
14 15
15 23
16 26
17 16
18 20
19 30
20 29
21 25
22 43
23 39
24 10
25 10
26 37
27 33
28 8
29 34
30 36
31 28
32 41
33 26
34 34
35 15
36 24
37 13
38 41
39 65
40 38
41 51
42 51
43 45
44 46
45 28
46 59
47 33
48 36
49 39
50 30
51 78
52 53
53 61
54 36
55 53
56 20
57 60
58 71
59 43
60 55
61 58
62 39
63 58
64 54
65 36
66 67
67 72
68 66
69 64
70 54
71 55
72 46
73 75
74 42
75 71
76 77
77 66
78 62
79 58
80 67
81 37
82 80
83 67
84 69
85 42
86 25
87 61
88 44
89 78
90 78
91 76
92 75
93 71
94 88
95 81
96 83
97 81
98 51
99 83
100 33
101 19
102 86
103 81
104 78
105 87
106 89
107 90
108 42
109 94
110 94
111 89
112 92
113 80
114 84
115 92
116 102
117 89
118 98
119 108
120 109
121 104
122 114
